(set-info :source |printed by MathSAT|)
(declare-fun call_firefly.ite34 () Int)
(declare-fun call_firefly.shared () Int)
(declare-fun call_firefly.ite40 () Int)
(declare-fun call_firefly.ite39 () Int)
(declare-fun call_firefly.ite6 () Int)
(declare-fun param_e7 () Bool)
(declare-fun call_firefly.flby2 () Int)
(declare-fun param_e8 () Bool)
(declare-fun _OK_ () Bool)
(declare-fun exclusive () Int)
(declare-fun call_firefly.ite24 () Int)
(declare-fun dirty () Int)
(declare-fun call_firefly.ite17 () Int)
(declare-fun call_firefly.ite8 () Int)
(declare-fun call_firefly.ite () Int)
(declare-fun param_e5 () Bool)
(declare-fun param_e1 () Bool)
(declare-fun _RT_ () Bool)
(declare-fun call_firefly.ite7 () Int)
(declare-fun call_firefly.ite18 () Int)
(declare-fun call_firefly.ite14 () Int)
(declare-fun call_firefly.invalid () Int)
(declare-fun call_firefly.ite30 () Int)
(declare-fun call_firefly.garde8 () Bool)
(declare-fun param_i_invalid () Int)
(declare-fun invalid () Int)
(declare-fun call_firefly.ite10 () Int)
(declare-fun call_excludes8.excludes () Bool)
(declare-fun call_firefly.exclusive () Int)
(declare-fun call_firefly.ite35 () Int)
(declare-fun shared () Int)
(declare-fun call_firefly.ite9 () Int)
(declare-fun call_firefly.ite12 () Int)
(declare-fun call_firefly.ite32 () Int)
(declare-fun call_firefly.garde3 () Bool)
(declare-fun call_firefly.ite33 () Int)
(declare-fun param_e2 () Bool)
(declare-fun _A1_ () Bool)
(declare-fun call_firefly.ite21 () Int)
(declare-fun call_firefly.ite3 () Int)
(declare-fun call_firefly.ite4 () Int)
(declare-fun call_firefly.ite13 () Int)
(declare-fun call_firefly.ite38 () Int)
(declare-fun param_e3 () Bool)
(declare-fun call_firefly.flby5 () Int)
(declare-fun call_firefly.ite16 () Int)
(declare-fun call_firefly.ite28 () Int)
(declare-fun call_firefly.ite31 () Int)
(declare-fun call_firefly.flby4 () Int)
(declare-fun param_e4 () Bool)
(declare-fun call_firefly.garde6 () Bool)
(declare-fun call_firefly.ite37 () Int)
(declare-fun call_firefly.ite23 () Int)
(declare-fun call_firefly.mem_invalid () Int)
(declare-fun call_firefly.ite20 () Int)
(declare-fun call_firefly.dirty () Int)
(declare-fun call_firefly.ite36 () Int)
(declare-fun call_firefly.ite26 () Int)
(declare-fun env () Bool)
(declare-fun _A2_ () Bool)
(declare-fun call_Sofar.Sofar () Bool)
(declare-fun call_firefly.ite5 () Int)
(declare-fun call_firefly.flby () Int)
(declare-fun call_firefly.ite2 () Int)
(declare-fun param_e6 () Bool)
(declare-fun call_firefly.ite29 () Int)
(declare-fun call_firefly.ite11 () Int)
(declare-fun call_firefly.ite27 () Int)
(declare-fun call_firefly.ite22 () Int)
(declare-fun call_firefly.flby3 () Int)
(declare-fun call_Sofar.flby () Bool)
(declare-fun call_firefly.ite25 () Int)
(declare-fun call_firefly.ite19 () Int)
(declare-fun call_firefly.ite15 () Int)
(define-fun .def_1129 () Bool (= call_Sofar.flby call_Sofar.Sofar))
(define-fun .def_924 () Bool (not param_e2))
(define-fun .def_905 () Bool (not param_e1))
(define-fun .def_1077 () Bool (and .def_905 .def_924))
(define-fun .def_952 () Bool (not param_e3))
(define-fun .def_1078 () Bool (and .def_952 .def_1077))
(define-fun .def_977 () Bool (not param_e4))
(define-fun .def_1079 () Bool (and .def_977 .def_1078))
(define-fun .def_994 () Bool (not param_e5))
(define-fun .def_1080 () Bool (and .def_994 .def_1079))
(define-fun .def_1012 () Bool (not param_e6))
(define-fun .def_1081 () Bool (and .def_1012 .def_1080))
(define-fun .def_847 () Bool (not param_e7))
(define-fun .def_1082 () Bool (and .def_847 .def_1081))
(define-fun .def_831 () Bool (not param_e8))
(define-fun .def_1118 () Bool (and .def_831 .def_1082))
(define-fun .def_1111 () Bool (and param_e1 .def_924))
(define-fun .def_1112 () Bool (and .def_952 .def_1111))
(define-fun .def_1113 () Bool (and .def_977 .def_1112))
(define-fun .def_1114 () Bool (and .def_994 .def_1113))
(define-fun .def_1115 () Bool (and .def_1012 .def_1114))
(define-fun .def_1116 () Bool (and .def_847 .def_1115))
(define-fun .def_1117 () Bool (and .def_831 .def_1116))
(define-fun .def_1119 () Bool (or .def_1117 .def_1118))
(define-fun .def_1104 () Bool (and .def_905 param_e2))
(define-fun .def_1105 () Bool (and .def_952 .def_1104))
(define-fun .def_1106 () Bool (and .def_977 .def_1105))
(define-fun .def_1107 () Bool (and .def_994 .def_1106))
(define-fun .def_1108 () Bool (and .def_1012 .def_1107))
(define-fun .def_1109 () Bool (and .def_847 .def_1108))
(define-fun .def_1110 () Bool (and .def_831 .def_1109))
(define-fun .def_1120 () Bool (or .def_1110 .def_1119))
(define-fun .def_1098 () Bool (and param_e3 .def_1077))
(define-fun .def_1099 () Bool (and .def_977 .def_1098))
(define-fun .def_1100 () Bool (and .def_994 .def_1099))
(define-fun .def_1101 () Bool (and .def_1012 .def_1100))
(define-fun .def_1102 () Bool (and .def_847 .def_1101))
(define-fun .def_1103 () Bool (and .def_831 .def_1102))
(define-fun .def_1121 () Bool (or .def_1103 .def_1120))
(define-fun .def_1093 () Bool (and param_e4 .def_1078))
(define-fun .def_1094 () Bool (and .def_994 .def_1093))
(define-fun .def_1095 () Bool (and .def_1012 .def_1094))
(define-fun .def_1096 () Bool (and .def_847 .def_1095))
(define-fun .def_1097 () Bool (and .def_831 .def_1096))
(define-fun .def_1122 () Bool (or .def_1097 .def_1121))
(define-fun .def_1089 () Bool (and param_e5 .def_1079))
(define-fun .def_1090 () Bool (and .def_1012 .def_1089))
(define-fun .def_1091 () Bool (and .def_847 .def_1090))
(define-fun .def_1092 () Bool (and .def_831 .def_1091))
(define-fun .def_1123 () Bool (or .def_1092 .def_1122))
(define-fun .def_1086 () Bool (and param_e6 .def_1080))
(define-fun .def_1087 () Bool (and .def_847 .def_1086))
(define-fun .def_1088 () Bool (and .def_831 .def_1087))
(define-fun .def_1124 () Bool (or .def_1088 .def_1123))
(define-fun .def_1084 () Bool (and param_e7 .def_1081))
(define-fun .def_1085 () Bool (and .def_831 .def_1084))
(define-fun .def_1125 () Bool (or .def_1085 .def_1124))
(define-fun .def_1083 () Bool (and param_e8 .def_1082))
(define-fun .def_1126 () Bool (or .def_1083 .def_1125))
(define-fun .def_1127 () Bool (= call_excludes8.excludes .def_1126))
(define-fun .def_1075 () Bool (= call_firefly.flby call_firefly.mem_invalid))
(define-fun .def_1073 () Bool (= call_firefly.flby5 call_firefly.shared))
(define-fun .def_1071 () Bool (= call_firefly.flby4 call_firefly.exclusive))
(define-fun .def_1069 () Bool (= call_firefly.flby3 call_firefly.dirty))
(define-fun .def_1067 () Bool (= call_firefly.flby2 call_firefly.invalid))
(define-fun .def_1064 () Bool (<= 0 exclusive))
(define-fun .def_1065 () Bool (= _A1_ .def_1064))
(define-fun .def_1059 () Bool (<= 2 dirty))
(define-fun .def_1060 () Bool (not .def_1059))
(define-fun .def_1058 () Bool (not env))
(define-fun .def_1061 () Bool (or .def_1058 .def_1060))
(define-fun .def_1062 () Bool (= _RT_ .def_1061))
(define-fun .def_1056 () Bool (= shared call_firefly.shared))
(define-fun .def_1052 () Bool (= exclusive call_firefly.exclusive))
(define-fun .def_1048 () Bool (= dirty call_firefly.dirty))
(define-fun .def_1045 () Bool (= invalid call_firefly.invalid))
(define-fun .def_1038 () Bool (and _A2_ _A1_))
(define-fun .def_1040 () Bool (and .def_1038 _RT_))
(define-fun .def_1041 () Bool (= _OK_ .def_1040))
(define-fun .def_1032 () Bool (= call_firefly.ite36 call_firefly.ite37))
(define-fun .def_1033 () Bool (or param_e7 .def_1032))
(define-fun .def_1029 () Bool (= call_firefly.ite37 call_firefly.ite34))
(define-fun .def_1030 () Bool (or .def_847 .def_1029))
(define-fun .def_1025 () Bool (= call_firefly.ite8 call_firefly.ite5))
(define-fun .def_1026 () Bool (or .def_847 .def_1025))
(define-fun .def_1022 () Bool (= call_firefly.ite7 call_firefly.ite8))
(define-fun .def_1023 () Bool (or param_e7 .def_1022))
(define-fun .def_1027 () Bool (and .def_1023 .def_1026))
(define-fun .def_1031 () Bool (and .def_1027 .def_1030))
(define-fun .def_1034 () Bool (and .def_1031 .def_1033))
(define-fun .def_1018 () Bool (= call_firefly.ite17 call_firefly.ite18))
(define-fun .def_1019 () Bool (or param_e6 .def_1018))
(define-fun .def_1015 () Bool (= call_firefly.ite15 call_firefly.ite18))
(define-fun .def_1016 () Bool (or .def_1012 .def_1015))
(define-fun .def_1011 () Bool (= call_firefly.ite9 call_firefly.ite4))
(define-fun .def_1013 () Bool (or .def_1011 .def_1012))
(define-fun .def_1007 () Bool (= call_firefly.ite9 call_firefly.ite8))
(define-fun .def_1009 () Bool (or .def_1007 param_e6))
(define-fun .def_1014 () Bool (and .def_1009 .def_1013))
(define-fun .def_1017 () Bool (and .def_1014 .def_1016))
(define-fun .def_1020 () Bool (and .def_1017 .def_1019))
(define-fun .def_1002 () Bool (= call_firefly.ite38 call_firefly.ite37))
(define-fun .def_1003 () Bool (or param_e5 .def_1002))
(define-fun .def_998 () Bool (= call_firefly.ite38 call_firefly.ite33))
(define-fun .def_999 () Bool (or .def_994 .def_998))
(define-fun .def_993 () Bool (= call_firefly.ite27 call_firefly.ite24))
(define-fun .def_995 () Bool (or .def_993 .def_994))
(define-fun .def_989 () Bool (= call_firefly.ite26 call_firefly.ite27))
(define-fun .def_991 () Bool (or .def_989 param_e5))
(define-fun .def_996 () Bool (and .def_991 .def_995))
(define-fun .def_1000 () Bool (and .def_996 .def_999))
(define-fun .def_1004 () Bool (and .def_1000 .def_1003))
(define-fun .def_985 () Bool (= call_firefly.ite28 call_firefly.ite27))
(define-fun .def_986 () Bool (or param_e4 .def_985))
(define-fun .def_981 () Bool (= call_firefly.ite28 call_firefly.ite23))
(define-fun .def_982 () Bool (or .def_977 .def_981))
(define-fun .def_976 () Bool (= call_firefly.ite19 call_firefly.ite14))
(define-fun .def_978 () Bool (or .def_976 .def_977))
(define-fun .def_972 () Bool (= call_firefly.ite19 call_firefly.ite18))
(define-fun .def_974 () Bool (or .def_972 param_e4))
(define-fun .def_979 () Bool (and .def_974 .def_978))
(define-fun .def_983 () Bool (and .def_979 .def_982))
(define-fun .def_987 () Bool (and .def_983 .def_986))
(define-fun .def_967 () Bool (= call_firefly.ite39 call_firefly.ite38))
(define-fun .def_968 () Bool (or param_e3 .def_967))
(define-fun .def_963 () Bool (= call_firefly.ite39 call_firefly.ite32))
(define-fun .def_964 () Bool (or .def_952 .def_963))
(define-fun .def_959 () Bool (= call_firefly.ite29 call_firefly.ite28))
(define-fun .def_960 () Bool (or param_e3 .def_959))
(define-fun .def_955 () Bool (= call_firefly.ite22 call_firefly.ite29))
(define-fun .def_956 () Bool (or .def_952 .def_955))
(define-fun .def_951 () Bool (= call_firefly.ite10 call_firefly.ite3))
(define-fun .def_953 () Bool (or .def_951 .def_952))
(define-fun .def_947 () Bool (= call_firefly.ite10 call_firefly.ite9))
(define-fun .def_949 () Bool (or .def_947 param_e3))
(define-fun .def_954 () Bool (and .def_949 .def_953))
(define-fun .def_957 () Bool (and .def_954 .def_956))
(define-fun .def_961 () Bool (and .def_957 .def_960))
(define-fun .def_965 () Bool (and .def_961 .def_964))
(define-fun .def_969 () Bool (and .def_965 .def_968))
(define-fun .def_942 () Bool (= call_firefly.ite40 call_firefly.ite39))
(define-fun .def_943 () Bool (or param_e2 .def_942))
(define-fun .def_938 () Bool (= call_firefly.ite31 call_firefly.ite40))
(define-fun .def_939 () Bool (or .def_924 .def_938))
(define-fun .def_933 () Bool (= call_firefly.ite20 call_firefly.ite19))
(define-fun .def_934 () Bool (or param_e2 .def_933))
(define-fun .def_929 () Bool (= call_firefly.ite13 call_firefly.ite20))
(define-fun .def_930 () Bool (or .def_924 .def_929))
(define-fun .def_923 () Bool (= call_firefly.ite11 call_firefly.ite2))
(define-fun .def_925 () Bool (or .def_923 .def_924))
(define-fun .def_919 () Bool (= call_firefly.ite11 call_firefly.ite10))
(define-fun .def_921 () Bool (or .def_919 param_e2))
(define-fun .def_926 () Bool (and .def_921 .def_925))
(define-fun .def_931 () Bool (and .def_926 .def_930))
(define-fun .def_935 () Bool (and .def_931 .def_934))
(define-fun .def_940 () Bool (and .def_935 .def_939))
(define-fun .def_944 () Bool (and .def_940 .def_943))
(define-fun .def_914 () Bool (= call_firefly.ite30 call_firefly.ite29))
(define-fun .def_915 () Bool (or param_e1 .def_914))
(define-fun .def_910 () Bool (= call_firefly.ite21 call_firefly.ite30))
(define-fun .def_911 () Bool (or .def_905 .def_910))
(define-fun .def_904 () Bool (= call_firefly.ite12 call_firefly.ite))
(define-fun .def_906 () Bool (or .def_904 .def_905))
(define-fun .def_900 () Bool (= call_firefly.ite12 call_firefly.ite11))
(define-fun .def_902 () Bool (or .def_900 param_e1))
(define-fun .def_907 () Bool (and .def_902 .def_906))
(define-fun .def_912 () Bool (and .def_907 .def_911))
(define-fun .def_916 () Bool (and .def_912 .def_915))
(define-fun .def_896 () Bool (= env call_Sofar.Sofar))
(define-fun .def_891 () Bool (<= 0 dirty))
(define-fun .def_893 () Bool (= .def_891 _A2_))
(define-fun .def_897 () Bool (and .def_893 .def_896))
(define-fun .def_917 () Bool (and .def_897 .def_916))
(define-fun .def_945 () Bool (and .def_917 .def_944))
(define-fun .def_970 () Bool (and .def_945 .def_969))
(define-fun .def_988 () Bool (and .def_970 .def_987))
(define-fun .def_1005 () Bool (and .def_988 .def_1004))
(define-fun .def_1021 () Bool (and .def_1005 .def_1020))
(define-fun .def_1035 () Bool (and .def_1021 .def_1034))
(define-fun .def_1042 () Bool (and .def_1035 .def_1041))
(define-fun .def_1046 () Bool (and .def_1042 .def_1045))
(define-fun .def_1049 () Bool (and .def_1046 .def_1048))
(define-fun .def_1053 () Bool (and .def_1049 .def_1052))
(define-fun .def_1057 () Bool (and .def_1053 .def_1056))
(define-fun .def_1063 () Bool (and .def_1057 .def_1062))
(define-fun .def_1066 () Bool (and .def_1063 .def_1065))
(define-fun .def_1068 () Bool (and .def_1066 .def_1067))
(define-fun .def_1070 () Bool (and .def_1068 .def_1069))
(define-fun .def_1072 () Bool (and .def_1070 .def_1071))
(define-fun .def_1074 () Bool (and .def_1072 .def_1073))
(define-fun .def_1076 () Bool (and .def_1074 .def_1075))
(define-fun .def_1128 () Bool (and .def_1076 .def_1127))
(define-fun .def_1130 () Bool (and .def_1128 .def_1129))
(define-fun .def_884 () Bool (<= 0 param_i_invalid))
(define-fun .def_886 () Bool (and .def_884 call_excludes8.excludes))
(define-fun .def_888 () Bool (= .def_886 call_Sofar.flby))
(define-fun .def_882 () Bool (= call_firefly.flby5 0))
(define-fun .def_879 () Bool (= call_firefly.flby4 0))
(define-fun .def_876 () Bool (= call_firefly.flby3 0))
(define-fun .def_873 () Bool (= call_firefly.flby2 call_firefly.mem_invalid))
(define-fun .def_869 () Bool (= param_i_invalid call_firefly.flby))
(define-fun .def_864 () Bool (= call_firefly.ite25 0))
(define-fun .def_863 () Bool (not call_firefly.garde8))
(define-fun .def_865 () Bool (or .def_863 .def_864))
(define-fun .def_859 () Bool (= call_firefly.ite15 1))
(define-fun .def_857 () Bool (not call_firefly.garde6))
(define-fun .def_860 () Bool (or .def_857 .def_859))
(define-fun .def_853 () Bool (= call_firefly.ite22 0))
(define-fun .def_851 () Bool (not call_firefly.garde3))
(define-fun .def_854 () Bool (or .def_851 .def_853))
(define-fun .def_845 () Bool (= call_firefly.ite16 call_firefly.ite17))
(define-fun .def_848 () Bool (or .def_845 .def_847))
(define-fun .def_840 () Bool (= call_firefly.ite35 call_firefly.ite36))
(define-fun .def_841 () Bool (or .def_831 .def_840))
(define-fun .def_835 () Bool (= call_firefly.ite6 call_firefly.ite7))
(define-fun .def_836 () Bool (or .def_831 .def_835))
(define-fun .def_829 () Bool (= call_firefly.ite25 call_firefly.ite26))
(define-fun .def_832 () Bool (or .def_829 .def_831))
(define-fun .def_837 () Bool (and .def_832 .def_836))
(define-fun .def_842 () Bool (and .def_837 .def_841))
(define-fun .def_849 () Bool (and .def_842 .def_848))
(define-fun .def_855 () Bool (and .def_849 .def_854))
(define-fun .def_861 () Bool (and .def_855 .def_860))
(define-fun .def_866 () Bool (and .def_861 .def_865))
(define-fun .def_870 () Bool (and .def_866 .def_869))
(define-fun .def_874 () Bool (and .def_870 .def_873))
(define-fun .def_877 () Bool (and .def_874 .def_876))
(define-fun .def_880 () Bool (and .def_877 .def_879))
(define-fun .def_883 () Bool (and .def_880 .def_882))
(define-fun .def_889 () Bool (and .def_883 .def_888))
(define-fun .def_1131 () Bool (and .def_889 .def_1130))
(assert .def_1131)
